c Output_time 26.03.2020 18:13:17_+0100 1585242797673865264
c ** Program information **
c program_name                          "QBRG_debug"
c version                               "0.3.20"
c date                                  "25.3.2020"
c gid_id                                "673970833836058123f633335630c185360d632e"
c author                                "Oliver Kullmann"
c url                                   "https://github.com/OKullmann/oklibrary/blob/master/Satisfiability/Transformers/Generators/Random/QBRG.cpp"
c ** Machine information **
c machine_name                          "chyna-Lenovo-G50-70"
c bogomips                              3791.08
c ** Compilation information **
c compiler_version                      "g++ 7.5.0"
c compilation_date                      "Mar_26_2020 11:16:30"
c compilation_options                   "--std=c++17 -pedantic -fmax-errors=5 -Wall -Wextra -g -D_GLIBCXX_DEBUG"
c NDEBUG                                0
c OPTIMIZE                              0
c ** Parameters **
c command-line                          "./QBRG_debug" "e40 a40 40" "373*1,1|2-2,1|3-3,1" "" "1,t" ""
c output                                "QuBlRaGe_120_373_1585242797641961216.qdimacs"
c options                               "filtered,renamed"
c num_quantifier_blocks                 3
c  quantifier_blocks                    1:e1-40 2:a41-80 3:e81-120
c num_clause-blocks                     1
c  clause-blocks                        373 * {1-40,1,1/2} | {41-80,1,1/2} | {81-120,1,1/2}
c num_e-seeds                           30+2=32
c  e-seeds                              1 0 1 0 4 120 2 40 1 40 0 40 1 373 3 1 1 1 1 2 2 2 1 1 2 3 3 1 1 2 1 1585242797641960565
p cnf 120 373
e 1 2 3 4 5 6 7 8 9 10 11 12 13 14 15 16 17 18 19 20 21 22 23 24 25 26 27 28 29 30 31 32 33 34 35 36 37 38 39 40 0
a 41 42 43 44 45 46 47 48 49 50 51 52 53 54 55 56 57 58 59 60 61 62 63 64 65 66 67 68 69 70 71 72 73 74 75 76 77 78 79 80 0
e 81 82 83 84 85 86 87 88 89 90 91 92 93 94 95 96 97 98 99 100 101 102 103 104 105 106 107 108 109 110 111 112 113 114 115 116 117 118 119 120 0
36 44 -81 0
-17 -74 -81 0
-13 79 -81 0
10 -66 81 0
-28 -58 -82 0
-36 58 -82 0
-40 -62 -82 0
8 65 -82 0
17 71 -82 0
11 74 -82 0
24 -80 -82 0
25 80 -82 0
17 50 82 0
-3 -51 82 0
-7 64 82 0
40 -75 82 0
39 76 82 0
-33 -42 -83 0
16 -44 -83 0
-29 47 -83 0
10 -70 -83 0
-19 51 83 0
31 -55 83 0
-25 41 -84 0
-39 46 -84 0
9 -52 -84 0
17 -71 -84 0
-11 -58 84 0
-27 -76 84 0
-24 53 -85 0
24 53 -85 0
25 -57 -85 0
24 -78 -85 0
-38 -41 85 0
2 -52 85 0
-33 52 85 0
-37 -54 85 0
10 -57 85 0
-38 65 85 0
4 -69 85 0
-13 -80 85 0
-15 42 -86 0
-5 -44 -86 0
-33 44 -86 0
-3 45 -86 0
12 63 -86 0
-1 -73 -86 0
15 78 -86 0
18 -44 86 0
37 53 86 0
-20 70 86 0
-40 72 86 0
-20 74 86 0
-37 -58 -87 0
15 -60 -87 0
-38 -44 87 0
-36 56 87 0
-11 58 87 0
-6 -78 87 0
7 -52 -88 0
33 -52 -88 0
-14 -75 -88 0
-7 -77 -88 0
23 -44 88 0
11 54 88 0
-39 62 88 0
35 65 88 0
-6 70 88 0
34 -56 -89 0
-9 56 -89 0
22 -49 89 0
2 -50 89 0
10 -43 -90 0
40 -45 -90 0
24 47 -90 0
3 -56 -90 0
17 -64 -90 0
30 70 -90 0
11 -77 -90 0
-13 -46 90 0
31 -48 90 0
5 -62 90 0
-2 -75 90 0
-14 76 90 0
31 -50 -91 0
31 -51 -91 0
19 -62 -91 0
-13 -69 -91 0
15 -77 -91 0
-32 -47 91 0
-13 -61 91 0
-19 -68 91 0
13 69 91 0
-37 -75 91 0
37 42 -92 0
33 -45 -92 0
15 45 -92 0
12 58 -92 0
-19 65 -92 0
15 77 -92 0
-39 79 -92 0
-34 61 92 0
-1 78 92 0
18 42 -93 0
-15 -45 -93 0
37 -47 -93 0
19 -51 -93 0
17 -73 -93 0
-28 75 -93 0
-11 78 -93 0
34 -79 -93 0
20 -67 93 0
26 -73 93 0
27 43 -94 0
-7 48 -94 0
-19 -50 -94 0
35 -42 94 0
-1 -55 94 0
31 68 94 0
-22 -73 94 0
10 78 94 0
37 -78 -95 0
1 54 95 0
25 41 -96 0
31 44 -96 0
33 -59 -96 0
-6 -60 -96 0
-20 71 -96 0
-28 73 -96 0
38 -74 -96 0
-37 77 -96 0
10 42 96 0
-13 -44 96 0
-19 50 96 0
-24 59 96 0
-11 -63 96 0
27 66 96 0
21 -67 96 0
-5 -69 96 0
34 43 -97 0
-27 50 -97 0
38 -51 -97 0
25 74 -97 0
-15 -77 -97 0
36 -52 97 0
-22 53 97 0
-16 68 97 0
36 -73 97 0
-12 79 97 0
20 -80 97 0
-5 45 -98 0
34 -52 -98 0
27 56 -98 0
-7 -60 -98 0
-14 -66 -98 0
-36 -43 98 0
38 -49 98 0
-3 -50 98 0
12 52 98 0
1 -72 98 0
-10 -74 98 0
29 -76 98 0
-39 -79 98 0
-35 79 98 0
15 52 -99 0
15 61 -99 0
30 -67 -99 0
-4 -72 -99 0
34 73 -99 0
-36 77 -99 0
24 79 -99 0
34 -45 99 0
-30 -50 99 0
32 -52 99 0
-20 54 99 0
-11 69 99 0
14 -79 99 0
26 80 99 0
-18 42 -100 0
30 61 -100 0
-35 -63 -100 0
5 -65 -100 0
-24 -52 100 0
-28 -71 100 0
-11 73 100 0
3 76 100 0
-29 -79 100 0
10 -57 -101 0
21 -75 -101 0
-7 -49 101 0
34 59 101 0
29 -74 101 0
-20 53 -102 0
6 62 -102 0
-31 -63 -102 0
-12 56 102 0
3 -58 102 0
38 62 102 0
-24 -66 102 0
10 -41 -103 0
6 -45 -103 0
-29 -49 -103 0
30 54 -103 0
20 -62 -103 0
-10 67 -103 0
11 73 -103 0
-8 -74 -103 0
18 -45 103 0
-17 46 103 0
-11 -79 103 0
40 46 -104 0
-12 -48 -104 0
-19 -50 -104 0
-11 65 -104 0
-39 -69 -104 0
20 -80 -104 0
24 -57 104 0
29 70 104 0
23 -74 104 0
-35 -74 104 0
-20 -43 -105 0
-14 -49 -105 0
-11 -72 -105 0
25 74 -105 0
5 -75 -105 0
15 75 -105 0
6 -80 -105 0
-28 45 105 0
3 -60 105 0
19 -78 105 0
-21 79 105 0
36 -49 -106 0
-6 -50 -106 0
33 60 -106 0
31 -62 -106 0
-30 -41 106 0
29 47 106 0
39 49 106 0
-37 -51 106 0
1 53 106 0
-4 -57 106 0
30 -61 106 0
7 66 106 0
27 -74 106 0
-30 50 -107 0
35 -54 -107 0
2 -57 -107 0
-11 73 -107 0
-38 74 -107 0
-25 48 107 0
-14 -51 107 0
9 51 107 0
12 53 107 0
-10 -55 107 0
-17 79 107 0
9 -48 -108 0
5 -49 -108 0
19 -67 -108 0
-4 -76 -108 0
-16 -78 -108 0
-2 78 -108 0
5 -54 108 0
36 -55 108 0
2 62 108 0
28 67 108 0
-32 73 108 0
16 74 108 0
-31 -42 -109 0
-3 49 -109 0
35 -55 -109 0
22 -63 -109 0
18 -71 -109 0
37 74 -109 0
-2 41 109 0
23 63 109 0
-3 68 109 0
6 -54 -110 0
-21 -55 -110 0
-26 -65 -110 0
-35 64 110 0
-3 65 110 0
-24 65 110 0
-7 -73 110 0
-27 -45 -111 0
22 -46 -111 0
-35 47 -111 0
-36 -61 -111 0
-13 66 -111 0
-24 66 -111 0
-6 67 -111 0
26 74 -111 0
-16 -76 -111 0
30 -41 111 0
26 -43 111 0
-1 -47 111 0
32 -74 111 0
9 75 111 0
-26 -80 111 0
36 -46 -112 0
-40 52 -112 0
30 57 -112 0
9 -72 -112 0
8 47 112 0
1 53 112 0
30 -58 112 0
17 -69 112 0
26 76 112 0
-25 -77 112 0
40 -46 -113 0
-10 -58 -113 0
19 59 -113 0
-25 -61 -113 0
-11 64 -113 0
28 -69 -113 0
-17 71 -113 0
-4 77 -113 0
-19 43 113 0
-10 45 113 0
9 -46 113 0
27 69 113 0
-14 -73 -114 0
-24 -79 -114 0
-36 72 114 0
9 77 114 0
40 -79 114 0
16 49 -115 0
-5 71 -115 0
-3 -75 -115 0
24 -45 115 0
10 -62 115 0
33 50 -116 0
-26 57 -116 0
-33 -64 -116 0
23 -66 -116 0
-27 -43 116 0
18 54 116 0
-35 46 -117 0
-29 50 -117 0
-23 63 -117 0
-22 -67 -117 0
19 68 -117 0
-2 -42 117 0
38 44 117 0
-26 -51 117 0
30 -69 117 0
-12 -72 117 0
-19 79 117 0
-31 -50 -118 0
-1 55 -118 0
4 56 -118 0
38 -77 -118 0
-24 78 -118 0
-37 -47 118 0
22 -69 118 0
38 71 118 0
37 75 118 0
37 -42 -119 0
5 -57 -119 0
-4 65 -119 0
40 -79 -119 0
36 44 119 0
19 54 119 0
4 -60 119 0
-4 -41 -120 0
-26 43 -120 0
-27 -54 -120 0
27 -59 -120 0
-25 75 -120 0
-12 -41 120 0
2 47 120 0
-2 70 120 0
-37 -75 120 0
-18 77 120 0
